language ESSENCE' 1.0
letting shiftRequirements = [[9, 6, 6, 7], [6, 6, 8, 8], [5, 6, 8, 9], [1, 5, 7, 15], [10, 5, 6, 7], [12, 5, 5, 6], [12, 5, 5, 6]]
letting numberOfWeeks = 28
letting s_min = 2
letting s_max = 4
